g3 0 1 0	# problem d5n8R4R6d0005d1
 8 9 1 0 4	# vars, constraints, objectives, ranges, eqns
 2 1	# nonlinear constraints, objectives
 0 0	# network constraints: nonlinear, linear
 8 8 8	# nonlinear vars in constraints, objectives, both
 0 0 0 1	# linear network variables; functions; arith, flags
 0 0 0 0 0	# discrete variables: binary, integer, nonlinear (b,c,o)
 72 8	# nonzeros in Jacobian, gradients
 0 0	# max name lengths: constraints, variables
 0 0 0 0 0	# common exprs: b,c,o,c1,o1
b
0 0.32 2.92
0 0.47 2.06
0 0.33 2.5
0 0.33 2.64
0 0.39 2.19
0 0.83 2.51
0 0.99 2.48
0 0.37 2.69
r
2 138.28
2 247.3
4 61.223
4 74.268
4 44.876
4 40.471
2 39.042
2 92.818
2 51.754
C0
o54
3
o2
o2
o2
o2
n2.8
v0
v3
v4
v4
o2
o2
o2
o2
n4.4
v0
v3
v5
v5
o2
o2
o2
o2
n6.41
v2
v2
v5
v7
C1
o54
6
o2
o2
o2
o2
n2.98
v0
v3
v4
v4
o2
o2
o2
o2
n1.56
v0
v3
v5
v5
o2
o2
o2
o2
n6.67
v2
v2
v5
v7
o2
o2
o2
o2
o2
n7.7
v0
v0
v1
v2
v6
o2
o2
o2
o2
o2
n5.87
v0
v1
v1
v4
v4
o2
o2
o2
o2
o2
n7.24
v2
v2
v4
v5
v7
C2
n0
C3
n0
C4
n0
C5
n0
C6
n0
C7
n0
C8
n0
O0 0
o54
6
o2
o2
o2
o2
n6.62
v0
v3
v4
v4
o2
o2
o2
o2
n1.82
v0
v3
v5
v5
o2
o2
o2
o2
n7.33
v2
v2
v5
v7
o2
o2
o2
o2
o2
n3.19
v0
v0
v1
v2
v6
o2
o2
o2
o2
o2
n2.93
v0
v1
v1
v4
v4
o2
o2
o2
o2
o2
n9.41
v2
v2
v4
v5
v7
k7
9
18
27
36
45
54
63
J0 8
0 4.26
1 4.87
2 4.92
3 8.9
4 -3.01
5 5.05
6 7.65
7 8.95
J1 8
0 8.31
1 7.93
2 0.44
3 8.1
4 4.34
5 0.25
6 1.19
7 6.99
J2 8
0 3.28
1 2.23
2 3.46
3 5.46
4 0.41
5 8.99
6 8.59
7 6.3
J3 8
0 5.53
1 2.27
2 8.66
3 1.23
4 3.41
5 8.7
6 9.44
7 8.53
J4 8
0 -1.59
1 4.87
2 4.85
3 6.49
4 7.4
5 6.89
6 1.52
7 0.72
J5 8
0 7.42
1 6.02
2 2.06
3 1.14
4 4.64
5 -4.36
6 3.23
7 7.79
J6 8
0 2.6
1 8.06
2 2.35
3 2.56
4 7.21
5 7.5
6 -6.96
7 5.07
J7 8
0 9.91
1 9.02
2 9.37
3 5.07
4 9.66
5 7.23
6 5.61
7 6.73
J8 8
0 4.96
1 4.87
2 7.24
3 6.7
4 8.69
5 -6.74
6 6.86
7 3.6
G0 8
0 1.14
1 1.07
2 5.65
3 9.43
4 -4.52
5 3.51
6 3.94
7 5.68
